23 
300 
4.6 7.1 0 0
5 5.6 0 -138
5.7 11.4 -20 -89
4.4 12.3 20 -11
2.8 14.3 -30 -91
3.2 10.3 15 -19
3.5 9.8 15 -17
4.4 8.4 10 -10
7.8 11 20 -11
8.8 9.8 -20 -101
7.7 8.2 -20 -81
6.3 7.9 -15 -133
5.4 8.2 10 -27
5.8 6.8 10 -26
6.7 5.8 -25 -63
13.8 13.1 -40 -96
14.1 14.2 40 -13
11.2 13.6 -30 -121
9.7 16.4 30 -12
9.5 18.8 50 -14
4.7 16.8 30 -22
